Read MPS format model from file dat/rmp/DER_96_16384_50.mps
Reading time = 3.71 seconds
: 16480 rows, 119072 columns, 10303252 nonzeros
Gurobi Optimizer version 9.0.0 build v9.0.0rc2 (linux64)
Optimize a model with 16480 rows, 119072 columns and 10303252 nonzeros
Model fingerprint: 0x5a422af9
Coefficient statistics:
  Matrix range     [3e-05, 1e+01]
  Objective range  [8e-01, 1e+03]
  Bounds range     [1e+05, 1e+05]
  RHS range        [1e+00, 1e+00]
Ordering time: 0.05s

Barrier statistics:
 AA' NZ     : 1.489e+06
 Factor NZ  : 1.667e+06 (roughly 70 MBytes of memory)
 Factor Ops : 1.745e+08 (less than 1 second per iteration)
 Threads    : 1

                  Objective                Residual
Iter       Primal          Dual         Primal    Dual     Compl     Time
   0   4.47744057e+09 -3.83042306e+08  1.15e+08 2.26e-02  7.26e+05     2s
   1   5.87188029e+07 -4.89812191e+07  1.33e+06 3.64e-12  8.82e+03     3s
   2   5.76271520e+06 -1.30897319e+07  1.26e+05 3.64e-12  9.22e+02     4s
   3   1.50097663e+05 -8.49516650e+06  6.54e+02 3.64e-12  7.60e+01     5s
   4   1.14513788e+05  6.57849349e+04  5.37e-10 3.64e-12  4.09e-01     5s
   5   1.14101626e+05  9.96267352e+04  5.27e-10 1.82e-12  1.21e-01     6s
   6   1.13739570e+05  1.06664052e+05  9.98e-10 3.64e-12  5.94e-02     7s
   7   1.13281862e+05  1.11126405e+05  9.93e-10 1.27e-11  1.81e-02     8s
   8   1.12791584e+05  1.11958689e+05  1.24e-09 5.46e-12  6.99e-03     9s
   9   1.12665147e+05  1.12073008e+05  1.06e-09 3.64e-12  4.97e-03    10s
  10   1.12501710e+05  1.12171199e+05  2.15e-09 3.64e-12  2.77e-03    11s
  11   1.12437706e+05  1.12238856e+05  2.40e-09 1.82e-12  1.67e-03    11s
  12   1.12374326e+05  1.12290681e+05  7.04e-09 3.64e-12  7.02e-04    12s
  13   1.12351986e+05  1.12307083e+05  5.95e-09 3.64e-12  3.77e-04    13s
  14   1.12342785e+05  1.12320166e+05  5.78e-09 3.64e-12  1.90e-04    14s
  15   1.12337472e+05  1.12330902e+05  9.96e-09 3.64e-12  5.51e-05    16s
  16   1.12335865e+05  1.12333101e+05  1.41e-08 3.64e-12  2.32e-05    17s
  17   1.12334979e+05  1.12334087e+05  2.91e-08 2.54e-12  7.48e-06    18s
  18   1.12334782e+05  1.12334269e+05  2.24e-08 4.09e-12  4.30e-06    19s
  19   1.12334688e+05  1.12334316e+05  3.58e-08 4.04e-12  3.12e-06    19s
  20   1.12334619e+05  1.12334356e+05  6.68e-08 3.74e-12  2.20e-06    20s
  21   1.12334532e+05  1.12334396e+05  1.13e-07 3.64e-12  1.14e-06    21s
  22   1.12334474e+05  1.12334416e+05  3.13e-07 3.64e-12  4.88e-07    22s
  23   1.12334450e+05  1.12334420e+05  1.00e-06 1.90e-12  2.58e-07    23s
  24   1.12334441e+05  1.12334426e+05  1.99e-06 1.82e-12  1.26e-07    24s
  25   1.12334434e+05  1.12334432e+05  2.34e-06 3.64e-12  1.18e-08    24s
  26   1.12334433e+05  1.12334433e+05  2.14e-06 5.46e-12  4.17e-10    25s
  27   1.12334433e+05  1.12334433e+05  2.81e-06 3.64e-12  3.75e-12    26s
  28   1.12334433e+05  1.12334433e+05  2.10e-06 3.64e-12  9.97e-14    27s
  29   1.12334433e+05  1.12334433e+05  6.61e-07 1.82e-12  1.35e-16    28s

Barrier solved model in 29 iterations and 27.68 seconds
Optimal objective 1.12334433e+05

Solve time: 27.696085564
Barrier iterations: 29
